(set-info :smt-lib-version 2.6)
(set-logic QF_AUFLIA)
(set-info :source |
Benchmarks used in the followin paper:
Big proof engines as little proof engines: new results on rewrite-based satisfiability procedure
Alessandro Armando, Maria Paola Bonacina, Silvio Ranise, Stephan Schulz. 
PDPAR'05
http://www.ai.dist.unige.it/pdpar05/


|)
(set-info :category "crafted")
(set-info :status sat)
(declare-fun a_671 () (Array Int Int))
(declare-fun a_673 () (Array Int Int))
(declare-fun a_675 () (Array Int Int))
(declare-fun a_677 () (Array Int Int))
(declare-fun a_679 () (Array Int Int))
(declare-fun a_681 () (Array Int Int))
(declare-fun a_683 () (Array Int Int))
(declare-fun a_685 () (Array Int Int))
(declare-fun a_687 () (Array Int Int))
(declare-fun a_689 () (Array Int Int))
(declare-fun a_691 () (Array Int Int))
(declare-fun a_693 () (Array Int Int))
(declare-fun a_695 () (Array Int Int))
(declare-fun a_697 () (Array Int Int))
(declare-fun a_698 () (Array Int Int))
(declare-fun a_699 () (Array Int Int))
(declare-fun a_701 () (Array Int Int))
(declare-fun a_703 () (Array Int Int))
(declare-fun a_705 () (Array Int Int))
(declare-fun a_707 () (Array Int Int))
(declare-fun a_709 () (Array Int Int))
(declare-fun a_711 () (Array Int Int))
(declare-fun a_713 () (Array Int Int))
(declare-fun a_715 () (Array Int Int))
(declare-fun a_717 () (Array Int Int))
(declare-fun a_719 () (Array Int Int))
(declare-fun a_721 () (Array Int Int))
(declare-fun a_723 () (Array Int Int))
(declare-fun e_670 () Int)
(declare-fun e_672 () Int)
(declare-fun e_674 () Int)
(declare-fun e_676 () Int)
(declare-fun e_678 () Int)
(declare-fun e_680 () Int)
(declare-fun e_682 () Int)
(declare-fun e_684 () Int)
(declare-fun e_686 () Int)
(declare-fun e_688 () Int)
(declare-fun e_690 () Int)
(declare-fun e_692 () Int)
(declare-fun e_694 () Int)
(declare-fun e_696 () Int)
(declare-fun e_700 () Int)
(declare-fun e_702 () Int)
(declare-fun e_704 () Int)
(declare-fun e_706 () Int)
(declare-fun e_708 () Int)
(declare-fun e_710 () Int)
(declare-fun e_712 () Int)
(declare-fun e_714 () Int)
(declare-fun e_716 () Int)
(declare-fun e_718 () Int)
(declare-fun e_720 () Int)
(declare-fun e_722 () Int)
(declare-fun e_725 () Int)
(declare-fun e_726 () Int)
(declare-fun i_724 () Int)
(declare-fun a1 () (Array Int Int))
(declare-fun i0 () Int)
(declare-fun i1 () Int)
(declare-fun i2 () Int)
(declare-fun i3 () Int)
(declare-fun i4 () Int)
(declare-fun i5 () Int)
(declare-fun i6 () Int)
(declare-fun sk ((Array Int Int) (Array Int Int)) Int)
(assert (= a_671 (store a1 i1 e_670)))
(assert (= a_673 (store a_671 i5 e_672)))
(assert (= a_675 (store a_673 i0 e_674)))
(assert (= a_677 (store a_675 i1 e_676)))
(assert (= a_679 (store a_677 i2 e_678)))
(assert (= a_681 (store a_679 i6 e_680)))
(assert (= a_683 (store a_681 i1 e_682)))
(assert (= a_685 (store a_683 i5 e_684)))
(assert (= a_687 (store a_685 i3 e_686)))
(assert (= a_689 (store a_687 i2 e_688)))
(assert (= a_691 (store a_689 i2 e_690)))
(assert (= a_693 (store a_691 i3 e_692)))
(assert (= a_695 (store a_693 i6 e_694)))
(assert (= a_697 (store a_695 i4 e_696)))
(assert (= a_698 (store a1 i5 e_672)))
(assert (= a_699 (store a_698 i1 e_670)))
(assert (= a_701 (store a_699 i1 e_700)))
(assert (= a_703 (store a_701 i0 e_702)))
(assert (= a_705 (store a_703 i2 e_704)))
(assert (= a_707 (store a_705 i6 e_706)))
(assert (= a_709 (store a_707 i1 e_708)))
(assert (= a_711 (store a_709 i5 e_710)))
(assert (= a_713 (store a_711 i3 e_712)))
(assert (= a_715 (store a_713 i2 e_714)))
(assert (= a_717 (store a_715 i2 e_716)))
(assert (= a_719 (store a_717 i3 e_718)))
(assert (= a_721 (store a_719 i4 e_720)))
(assert (= a_723 (store a_721 i0 e_722)))
(assert (= e_670 (select a1 i5)))
(assert (= e_672 (select a1 i1)))
(assert (= e_674 (select a_673 i1)))
(assert (= e_676 (select a_673 i0)))
(assert (= e_678 (select a_677 i6)))
(assert (= e_680 (select a_677 i2)))
(assert (= e_682 (select a_681 i5)))
(assert (= e_684 (select a_681 i1)))
(assert (= e_686 (select a_685 i2)))
(assert (= e_688 (select a_685 i3)))
(assert (= e_690 (select a_689 i3)))
(assert (= e_692 (select a_689 i2)))
(assert (= e_694 (select a_693 i4)))
(assert (= e_696 (select a_693 i6)))
(assert (= e_700 (select a_699 i0)))
(assert (= e_702 (select a_699 i1)))
(assert (= e_704 (select a_703 i6)))
(assert (= e_706 (select a_703 i2)))
(assert (= e_708 (select a_707 i5)))
(assert (= e_710 (select a_707 i1)))
(assert (= e_712 (select a_711 i2)))
(assert (= e_714 (select a_711 i3)))
(assert (= e_716 (select a_715 i3)))
(assert (= e_718 (select a_715 i2)))
(assert (= e_720 (select a_719 i0)))
(assert (= e_722 (select a_719 i4)))
(assert (= e_725 (select a_697 i_724)))
(assert (= e_726 (select a_723 i_724)))
(assert (= i_724 (sk a_697 a_723)))
(assert (not (= e_725 e_726)))
(check-sat)
(exit)
